
  32    4
  10   10   10   10

   0   0   0   0   0   4 2 5 6 9 
   9  10  10  10  10   3 10 4 3 
   2  10  10  10  10   3 14 11 7 
   7  10  10  10  10   4 18 15 8 7 
   6  10  10  10  10   3 23 13 7 
   5  10  10  10  10   3 31 13 11 
   1  10  10  10  10   5 24 20 19 17 16 
   1  10  10  10  10   5 30 24 23 19 14 
   2  10  10  10  10   3 23 19 13 
   5  10  10  10  10   5 31 30 24 18 15 
   9  10  10  10  10   2 18 12 
   1  10  10  10  10   3 30 23 15 
   1  10  10  10  10   3 29 18 14 
   6  10  10  10  10   2 27 17 
   5  10  10  10  10   2 27 17 
   7  10  10  10  10   5 30 29 28 26 25 
   2  10  10  10  10   3 28 26 21 
   2  10  10  10  10   2 27 25 
   9  10  10  10  10   2 31 29 
   6  10  10  10  10   2 29 27 
  10  10  10  10  10   1 22 
  10  10  10  10  10   1 25 
   8  10  10  10  10   1 25 
   3  10  10  10  10   1 26 
   6  10  10  10  10   1 32
   3  10  10  10  10   1 32
   3  10  10  10  10   1 32
   9  10  10  10  10   1 32
   5  10  10  10  10   1 32
  10  10  10  10  10   1 32
   3  10  10  10  10   1 32
   0   0   0   0   0   0 
